p cnf 345 977
c ind 343 325 328 329 299 302 305 306 321 322 0
c ind 327 332 334 335 337 338 341 297 301 304 0
c ind 308 310 313 316 317 319 320 326 331 333 0
c ind 339 342 300 307 312 318 323 324 330 340 0
c ind 303 309 311 298 315 336 314 1 0
c ret 195 204 294 295 296 205 206 207 208 209 0
c ret 210 211 212 213 196 214 215 216 217 218 0
c ret 219 220 221 222 223 197 224 225 226 227 0
c ret 228 229 230 231 232 233 198 234 235 236 0
c ret 237 238 239 240 241 242 243 199 244 245 0
c ret 246 247 248 249 250 251 252 253 200 254 0
c ret 255 256 257 258 259 260 261 262 263 201 0
c ret 264 265 266 267 268 269 270 271 272 273 0
c ret 202 274 275 276 277 278 279 280 281 282 0
c ret 283 203 284 285 286 287 288 289 290 291 0
c ret 292 293 0
2 7 343 0
2 -3 184 0
2 -3 7 0
2 184 343 0
-2 3 -343 0
-2 -7 -184 0
3 -4 214 0
3 -4 -5 0
3 -4 213 0
-3 4 0
-3 5 -213 -214 0
4 215 216 217 0
-4 -215 0
-4 -217 0
-4 -216 0
5 -6 212 0
5 211 212 0
-5 -212 0
-5 6 -211 0
6 208 209 210 0
-6 -208 0
-6 -210 0
-6 -209 0
7 -8 -33 -169 -175 0
-7 175 0
-7 8 0
-7 169 0
-7 33 0
8 -9 -11 -26 287 0
8 9 -11 -26 -287 0
-8 26 0
-8 9 287 0
-8 11 0
-8 -9 -287 0
9 -10 -235 0
9 -10 203 0
-9 10 0
-9 -203 235 0
3 10 -195 0
-10 195 0
-3 -10 0
11 -12 -15 -19 241 0
11 12 -15 -19 -241 0
-11 19 0
-11 12 241 0
-11 15 0
-11 -12 -241 0
12 13 -205 0
12 13 195 0
-12 -13 0
-12 -195 205 0
13 14 -206 -242 0
-13 206 0
-13 242 0
-13 -14 0
14 196 205 207 0
-14 -196 0
-14 -207 0
-14 -205 0
15 -16 -249 0
15 18 -245 0
15 -245 -249 0
15 -16 18 0
-15 -18 249 0
-15 16 245 0
16 17 198 0
16 -17 253 0
-16 -17 -253 0
-16 17 -198 0
17 196 205 -207 0
-17 207 0
-17 -205 0
-17 -196 0
-17 18 -257 0
17 18 -202 0
17 -18 202 0
-17 -18 257 0
19 -20 23 -25 0
19 -20 23 -250 0
-19 20 0
-19 -23 0
-19 25 250 0
20 21 251 0
20 22 248 0
20 21 22 0
20 248 251 0
-20 -21 -248 0
-20 -22 -251 0
17 21 201 0
-17 21 256 0
-17 -21 -256 0
17 -21 -201 0
17 22 204 0
-17 22 259 0
-17 -22 -259 0
17 -22 -204 0
23 -24 -244 0
-23 244 0
-23 24 0
17 24 197 0
-17 24 252 0
-17 -24 -252 0
17 -24 -197 0
17 25 203 0
-17 25 258 0
-17 -25 -258 0
17 -25 -203 0
26 -28 -29 247 0
26 27 -28 -29 0
-26 29 0
-26 28 0
-26 -27 -247 0
17 27 200 0
-17 27 255 0
-17 -27 -255 0
17 -27 -200 0
28 -248 250 0
-21 25 28 0
25 28 -248 0
-21 28 250 0
21 -28 248 0
-25 -28 -250 0
29 -30 31 32 246 0
29 30 31 32 -246 0
-29 -31 0
-29 30 246 0
-29 -32 0
-29 -30 -246 0
17 30 199 0
-17 30 254 0
-17 -30 -254 0
17 -30 -199 0
18 31 -249 0
-31 249 0
-18 -31 0
27 32 247 0
-32 -247 0
-27 -32 0
33 34 37 -113 0
33 37 -113 266 0
-33 113 0
-33 -37 0
-33 -34 -266 0
34 35 211 0
34 -36 -195 -211 0
34 36 211 0
34 35 -195 0
-34 195 -211 0
-34 -35 -36 211 0
-34 -35 36 -211 0
-3 35 -195 0
-35 195 0
3 -35 0
36 -208 -209 -210 0
-36 208 0
-36 209 0
-36 210 0
37 -38 -60 -67 -78 0
-37 78 0
-37 38 0
-37 67 0
-37 60 0
38 -39 -49 -54 -57 0
-38 57 0
-38 39 0
-38 54 0
-38 49 0
39 -40 -45 -47 -48 0
-39 48 0
-39 40 0
-39 47 0
-39 45 0
40 -41 -42 -43 -44 0
-40 44 0
-40 41 0
-40 43 0
-40 42 0
41 -250 -304 0
41 249 305 0
41 249 -250 0
41 -304 305 0
-41 -249 304 0
-41 250 -305 0
42 -296 -333 0
42 287 342 0
42 287 -296 0
42 -333 342 0
-42 -287 333 0
-42 296 -342 0
43 -273 318 0
43 -271 320 0
43 -271 -273 0
43 318 320 0
-43 273 -320 0
-43 271 -318 0
44 250 266 0
44 -305 -313 0
44 250 -313 0
44 266 -305 0
-44 -250 305 0
-44 -266 313 0
45 -46 -272 -319 0
45 -46 272 319 0
-45 46 0
-45 -272 319 0
-45 272 -319 0
46 -262 -310 0
46 263 309 0
46 309 -310 0
46 -262 263 0
-46 -263 310 0
-46 262 -309 0
47 -241 -308 0
47 261 297 0
47 297 -308 0
47 -241 261 0
-47 -261 308 0
-47 241 -297 0
48 -289 299 0
48 -244 335 0
48 -244 -289 0
48 299 335 0
-48 289 -335 0
-48 244 -299 0
49 -50 -51 -52 -53 0
-49 53 0
-49 50 0
-49 52 0
-49 51 0
50 -283 304 0
50 -249 329 0
50 -249 -283 0
50 304 329 0
-50 283 -329 0
-50 249 -304 0
51 270 271 0
51 -317 -318 0
51 270 -318 0
51 271 -317 0
-51 -270 317 0
-51 -271 318 0
52 -245 -323 0
52 276 300 0
52 300 -323 0
52 -245 276 0
-52 -276 323 0
-52 245 -300 0
53 -275 -320 0
53 273 322 0
53 273 -275 0
53 -320 322 0
-53 -273 320 0
-53 275 -322 0
54 -55 56 -287 0
54 -55 56 333 0
-54 55 0
-54 -56 0
-54 287 -333 0
55 251 275 0
55 -306 -322 0
55 251 -322 0
55 275 -306 0
-55 -251 306 0
-55 -275 322 0
56 276 -323 0
-56 -276 0
-56 323 0
57 58 59 269 316 0
57 58 59 -269 -316 0
-57 -58 0
-57 -269 316 0
-57 -59 0
-57 269 -316 0
58 270 -317 0
-58 -270 0
-58 317 0
59 293 -339 0
-59 -293 0
-59 339 0
60 -61 -62 -265 0
60 -61 -62 312 0
-60 62 0
-60 61 0
-60 265 -312 0
61 -295 310 0
61 -263 341 0
61 -263 -295 0
61 310 341 0
-61 295 -341 0
-61 263 -310 0
62 -63 -64 -65 -66 0
-62 66 0
-62 63 0
-62 65 0
-62 64 0
63 290 295 0
63 -336 -341 0
63 290 -341 0
63 295 -336 0
-63 -290 336 0
-63 -295 341 0
64 -278 -311 0
64 264 325 0
64 264 -278 0
64 -311 325 0
-64 -264 311 0
-64 278 -325 0
65 291 292 0
65 -337 -338 0
65 291 -338 0
65 292 -337 0
-65 -291 337 0
-65 -292 338 0
66 294 296 0
66 -340 -342 0
66 294 -342 0
66 296 -340 0
-66 -294 340 0
-66 -296 342 0
67 -68 -73 -76 -77 0
-67 77 0
-67 68 0
-67 76 0
-67 73 0
68 -69 -70 -71 -72 0
-68 72 0
-68 69 0
-68 71 0
-68 70 0
69 -280 -325 0
69 278 326 0
69 278 -280 0
69 -325 326 0
-69 -278 325 0
-69 280 -326 0
70 -277 -307 0
70 260 324 0
70 260 -277 0
70 -307 324 0
-70 -260 307 0
-70 277 -324 0
71 -266 -312 0
71 265 313 0
71 265 -266 0
71 -312 313 0
-71 -265 312 0
-71 266 -313 0
72 -243 -330 0
72 284 298 0
72 298 -330 0
72 -243 284 0
-72 -284 330 0
-72 243 -298 0
73 -74 75 -292 0
73 -74 75 338 0
-73 74 0
-73 -75 0
-73 292 -338 0
74 -281 301 0
74 -246 327 0
74 -246 -281 0
74 301 327 0
-74 281 -327 0
-74 246 -301 0
75 291 -337 0
-75 -291 0
-75 337 0
76 -285 -297 0
76 241 331 0
76 241 -285 0
76 -297 331 0
-76 -241 297 0
-76 285 -331 0
77 243 288 0
77 -298 -334 0
77 243 -334 0
77 288 -298 0
-77 -243 298 0
-77 -288 334 0
78 -79 -82 -87 -92 0
-78 92 0
-78 79 0
-78 87 0
-78 82 0
79 -80 -81 282 328 0
79 -80 -81 -282 -328 0
-79 81 0
-79 -282 328 0
-79 80 0
-79 282 -328 0
80 339 340 341 342 0
-80 -342 0
-80 -341 0
-80 -339 0
-80 -340 0
81 -268 274 -315 321 0
81 268 -274 315 -321 0
81 268 274 315 321 0
81 -268 -274 -315 -321 0
-81 -268 315 0
-81 268 -315 0
-81 274 -321 0
-81 -274 321 0
82 -83 -84 -85 -86 0
-82 86 0
-82 83 0
-82 85 0
-82 84 0
83 327 328 329 330 0
-83 -330 0
-83 -329 0
-83 -327 0
-83 -328 0
84 323 324 325 326 0
-84 -326 0
-84 -325 0
-84 -323 0
-84 -324 0
85 335 336 -337 338 0
-85 -335 0
-85 -338 0
-85 337 0
-85 -336 0
86 331 332 333 334 0
-86 -334 0
-86 -333 0
-86 -331 0
-86 -332 0
87 -88 -89 -90 -91 0
-87 91 0
-87 88 0
-87 90 0
-87 89 0
88 311 312 313 314 0
-88 -314 0
-88 -313 0
-88 -311 0
-88 -312 0
89 307 308 309 310 0
-89 -310 0
-89 -309 0
-89 -307 0
-89 -308 0
90 319 320 321 322 0
-90 -322 0
-90 -321 0
-90 -319 0
-90 -320 0
91 315 316 317 318 0
-91 -318 0
-91 -317 0
-91 -315 0
-91 -316 0
92 -93 -98 -103 -108 0
-92 108 0
-92 93 0
-92 103 0
-92 98 0
93 -94 -95 -96 -97 0
-93 97 0
-93 94 0
-93 96 0
-93 95 0
94 -261 -327 0
94 281 308 0
94 308 -327 0
94 -261 281 0
-94 -281 327 0
-94 261 -308 0
95 246 247 0
95 -301 -302 0
95 246 -302 0
95 247 -301 0
-95 -246 301 0
-95 -247 302 0
96 -260 -324 0
96 277 307 0
96 307 -324 0
96 -260 277 0
-96 -277 324 0
-96 260 -307 0
97 -248 -300 0
97 245 303 0
97 245 -248 0
97 -300 303 0
-97 -245 300 0
-97 248 -303 0
98 -99 -100 -101 -102 0
-98 102 0
-98 99 0
-98 101 0
-98 100 0
99 -251 -314 0
99 267 306 0
99 306 -314 0
99 -251 267 0
-99 -267 314 0
-99 251 -306 0
100 -284 302 0
100 -247 330 0
100 -247 -284 0
100 302 330 0
-100 284 -330 0
-100 247 -302 0
101 248 283 0
101 -303 -329 0
101 248 -329 0
101 283 -303 0
-101 -248 303 0
-101 -283 329 0
102 -267 311 0
102 -264 314 0
102 -264 -267 0
102 311 314 0
-102 267 -314 0
-102 264 -311 0
103 -104 -105 -106 -107 0
-103 107 0
-103 104 0
-103 106 0
-103 105 0
104 297 298 -339 0
104 293 297 298 0
-104 -298 0
-104 -297 0
-104 -293 339 0
105 -294 -299 0
105 244 340 0
105 244 -294 0
105 -299 340 0
-105 -244 299 0
-105 294 -340 0
106 303 304 305 306 0
-106 -306 0
-106 -305 0
-106 -303 0
-106 -304 0
107 299 300 301 302 0
-107 -302 0
-107 -301 0
-107 -299 0
-107 -300 0
108 -109 -110 -111 -112 0
-108 112 0
-108 109 0
-108 111 0
-108 110 0
109 -288 -309 0
109 262 334 0
109 262 -288 0
109 -309 334 0
-109 -262 309 0
-109 288 -334 0
110 285 286 0
110 -331 -332 0
110 285 -332 0
110 286 -331 0
-110 -285 331 0
-110 -286 332 0
111 -290 -326 0
111 280 336 0
111 280 -290 0
111 -326 336 0
-111 -280 326 0
-111 290 -336 0
112 -286 -335 0
112 289 332 0
112 332 -335 0
112 -286 289 0
-112 -289 335 0
-112 286 -332 0
113 114 -116 -122 286 0
113 -114 -116 -122 -286 0
-113 122 0
-113 114 -286 0
-113 116 0
-113 -114 286 0
13 114 -206 0
13 17 114 115 0
-13 -114 0
-114 -115 206 0
-17 -114 206 0
115 207 230 0
-115 -207 0
-115 -230 0
14 116 117 -119 -243 0
-14 116 117 -119 243 0
-116 119 0
14 -116 243 0
-116 -117 0
-14 -116 -243 0
117 -118 -262 0
117 118 262 0
-117 -118 262 0
-117 118 -262 0
118 -234 0
118 207 240 0
-118 -207 234 0
-118 234 -240 0
119 120 -121 -261 285 0
119 -120 -121 261 285 0
119 -120 121 261 -285 0
119 120 121 -261 -285 0
-119 -120 -261 0
-119 120 261 0
-119 121 285 0
-119 -121 -285 0
120 206 234 0
-120 -206 0
-120 -234 0
121 229 -232 0
-121 -229 0
-121 232 0
122 -123 -130 -139 -146 0
-122 146 0
-122 123 0
-122 139 0
-122 130 0
123 -124 -129 245 0
16 123 -124 -129 0
-123 129 0
-123 124 0
-16 -123 -245 0
124 -126 -293 0
124 125 -126 237 0
-124 126 0
-124 -237 293 0
-124 -125 293 0
125 233 -238 0
-125 -233 0
-125 238 0
126 127 -128 292 0
126 127 -128 -236 0
-126 128 0
-126 -127 0
-126 236 -292 0
-125 127 289 0
127 237 289 -293 0
-127 -289 0
125 -127 -237 0
125 -127 293 0
128 -226 -273 0
128 218 282 0
128 218 -226 0
128 -273 282 0
-128 -218 273 0
-128 226 -282 0
-22 129 -244 0
-24 129 -251 0
129 -244 -251 0
-22 -24 129 0
22 -129 251 0
24 -129 244 0
130 -131 -132 -133 -134 0
-130 134 0
-130 131 0
-130 133 0
-130 132 0
131 234 -235 236 237 0
-131 235 0
-131 -237 0
-131 -234 0
-131 -236 0
132 228 229 231 232 0
-132 -232 0
-132 -231 0
-132 -228 0
-132 -229 0
-4 133 238 239 260 0
4 -133 0
-133 -260 0
-133 -238 0
-133 -239 0
134 -135 -136 -137 -138 0
-134 138 0
-134 135 0
-134 137 0
-134 136 0
135 213 214 218 219 0
-135 -219 0
-135 -218 0
-135 -213 0
-135 -214 0
136 205 206 211 212 0
-136 -212 0
-136 -211 0
-136 -205 0
-136 -206 0
137 224 225 226 227 0
-137 -227 0
-137 -226 0
-137 -224 0
-137 -225 0
138 220 221 222 223 0
-138 -223 0
-138 -222 0
-138 -220 0
-138 -221 0
139 -140 -144 -145 296 0
139 -140 -144 145 -296 0
-139 140 0
-139 -145 -296 0
-139 144 0
-139 145 296 0
140 141 142 143 295 0
140 141 -142 143 -295 0
-140 -141 0
-140 142 -295 0
-140 -143 0
-140 -142 295 0
141 -233 -289 0
141 238 -289 0
-141 289 0
-141 233 -238 0
142 -234 -239 0
-142 234 0
-142 239 0
143 -234 -290 0
143 240 -290 0
-143 290 0
-143 234 -240 0
-6 144 240 0
-6 144 -290 0
-6 144 -234 0
6 -144 0
-144 234 -240 290 0
145 233 240 0
-145 -233 0
-145 -240 0
146 -147 -153 -156 -159 0
-146 159 0
-146 147 0
-146 156 0
-146 153 0
147 -148 -151 -152 0
-147 148 0
-147 151 0
-147 152 0
148 149 150 224 280 0
148 149 150 -224 -280 0
-148 -149 0
-148 -224 280 0
-148 -150 0
-148 224 -280 0
149 221 -276 0
-149 -221 0
-149 276 0
150 238 -294 0
-150 -238 0
-150 294 0
151 -220 -288 0
151 -232 275 0
151 -220 -232 0
151 275 -288 0
-151 232 288 0
-151 220 -275 0
152 -218 -276 0
152 221 273 0
152 273 -276 0
152 -218 221 0
-152 -221 276 0
-152 218 -273 0
153 154 155 228 284 0
153 154 155 -228 -284 0
-153 -154 0
-153 -228 284 0
-153 -155 0
-153 228 -284 0
154 -225 281 0
-154 225 0
-154 -281 0
155 -227 283 0
-155 227 0
-155 -283 0
156 157 -158 238 0
156 157 -158 -294 0
-156 158 0
-156 -157 0
-156 -238 294 0
157 -226 282 0
-157 226 0
-157 -282 0
158 -225 -292 0
158 236 281 0
158 281 -292 0
158 -225 236 0
-158 -236 292 0
-158 225 -281 0
159 -160 -162 -163 -164 0
-159 164 0
-159 160 0
-159 163 0
-159 162 0
-145 160 -161 223 0
-145 160 -161 -278 0
-160 161 0
145 -160 0
-160 -223 278 0
161 195 196 283 0
161 195 196 -227 0
-161 -195 0
-161 -196 0
-161 227 -283 0
162 201 202 203 204 0
-162 -204 0
-162 -203 0
-162 -201 0
-162 -202 0
163 197 198 199 200 0
-163 -200 0
-163 -199 0
-163 -197 0
-163 -198 0
164 -165 -166 -167 -168 0
-164 168 0
-164 165 0
-164 167 0
-164 166 0
165 219 222 0
165 -274 -277 0
165 219 -277 0
165 222 -274 0
-165 -219 274 0
-165 -222 277 0
166 220 232 0
166 -275 288 0
166 232 -275 0
166 220 288 0
-166 -220 275 0
-166 -232 -288 0
167 207 -223 230 0
167 207 230 278 0
-167 -207 0
-167 -230 0
-167 223 -278 0
168 -222 274 0
168 -219 277 0
168 -219 -222 0
168 274 277 0
-168 222 -277 0
-168 219 -274 0
169 170 -171 -264 269 0
169 -170 -171 264 269 0
169 -170 171 264 -269 0
169 170 171 -264 -269 0
-169 -170 -264 0
-169 170 264 0
-169 171 269 0
-169 -171 -269 0
35 170 209 0
170 -195 -208 -209 0
35 170 -195 0
170 208 209 0
-170 195 -209 0
-35 -170 -208 209 0
-35 -170 208 -209 0
35 171 214 0
171 -172 -195 -214 0
171 172 214 0
35 171 -195 0
-171 195 -214 0
-35 -171 -172 214 0
-35 -171 172 -214 0
172 -173 -213 0
-172 213 0
-172 173 0
173 -174 -212 0
-173 212 0
-173 174 0
-36 174 -211 0
-174 211 0
36 -174 0
175 -176 -177 -180 267 0
175 176 -177 -180 -267 0
-175 180 0
-175 176 267 0
-175 177 0
-175 -176 -267 0
35 176 212 0
-174 176 -195 -212 0
174 176 212 0
35 176 -195 0
-176 195 -212 0
-35 -174 -176 212 0
-35 174 -176 -212 0
177 178 -179 -291 0
177 -178 -179 291 0
177 -178 -263 291 0
177 178 -263 -291 0
-177 -178 -291 0
-177 178 291 0
-177 179 263 0
10 178 235 0
-178 -235 0
-10 -178 0
179 -195 -208 0
35 179 208 0
-179 195 -208 0
-35 -179 208 0
180 -181 182 183 268 0
180 181 182 183 -268 0
-180 -182 0
-180 181 268 0
-180 -183 0
-180 -181 -268 0
35 181 213 0
-173 181 -195 -213 0
173 181 213 0
35 181 -195 0
-181 195 -213 0
-35 -173 -181 213 0
-35 173 -181 -213 0
34 182 266 0
-182 -266 0
-34 -182 0
-179 183 -263 0
-183 263 0
179 -183 0
184 185 -188 192 -271 0
184 -185 -188 192 271 0
-184 -192 0
-184 185 271 0
-184 188 0
-184 -185 -271 0
35 185 216 0
185 -186 -195 -216 0
185 186 216 0
35 185 -195 0
-185 195 -216 0
-35 -185 -186 216 0
-35 -185 186 -216 0
186 -187 -215 0
-186 215 0
-186 187 0
-172 187 -214 0
-187 214 0
172 -187 0
188 189 -190 265 -270 0
188 -189 -190 265 270 0
188 -189 190 -265 270 0
188 189 190 -265 -270 0
-188 -190 -265 0
-188 190 265 0
-188 -189 -270 0
-188 189 270 0
35 189 215 0
-187 189 -195 -215 0
187 189 215 0
35 189 -195 0
-189 195 -215 0
-35 -187 -189 215 0
-35 187 -189 -215 0
35 190 210 0
190 -191 -195 -210 0
190 191 210 0
35 190 -195 0
-190 195 -210 0
-35 -190 -191 210 0
-35 -190 191 -210 0
191 -208 -209 0
-191 208 0
-191 209 0
192 -193 272 0
192 193 -272 0
-192 -193 -272 0
-192 193 272 0
10 193 -217 0
10 193 -194 -195 0
-10 -193 0
-193 194 217 0
-193 195 217 0
-186 194 -216 0
-194 216 0
186 -194 0
1 -2 0
-1 2 0
344 0

